                                        
   1.00000000000000     
     3.8437495097479952    0.0000000000000000    0.0000000000000000
     0.0000000000000000    3.8437495097479952    0.0000000000000000
     0.0000000000000000    0.0000000000000000    4.7148668314272468
   Ti   Pb   O 
     1     1     3
Direct
  0.5000000000000000  0.5000000000000000  0.5200462152727173
  0.0000000000000000  0.0000000000000000  0.9624670157227684
  0.0000000000000000  0.5000000000000000  0.6300651452119347
  0.5000000000000000  0.0000000000000000  0.6300651452119347
  0.5000000000000000  0.5000000000000000  0.1432565545806505
 
  0.00000000E+00  0.00000000E+00  0.00000000E+00
  0.00000000E+00  0.00000000E+00  0.00000000E+00
  0.00000000E+00  0.00000000E+00  0.00000000E+00
  0.00000000E+00  0.00000000E+00  0.00000000E+00
  0.00000000E+00  0.00000000E+00  0.00000000E+00
