POSCAR                                        
   1.00000000000000     
     3.9637840562068227    0.0000000000000000    0.0000000000000000
     0.0000000000000000    3.9637840562068227    0.0000000000000000
     0.0000000000000000    0.0000000000000000    3.9637840562068227
   Ti   Pb   O 
     1     1     3
Direct
  0.5000000000000000  0.5000000000000000  0.5000000000000000
  0.0000000000000000  0.0000000000000000  0.0000000000000000
  0.0000000000000000  0.5000000000000000  0.5000000000000000
  0.5000000000000000  0.0000000000000000  0.5000000000000000
  0.5000000000000000  0.5000000000000000  0.0000000000000000